c CNF
c from Selman's wff generator
p cnf 140  1300
1.0 -71 -23 0
1.0 -67 -135 0
1.0 25 -54 0
1.0 46 -79 0
1.0 103 10 0
1.0 -21 121 0
1.0 -16 -101 0
1.0 96 108 0
1.0 -130 31 0
1.0 26 92 0
1.0 5 67 0
1.0 5 -75 0
1.0 84 -58 0
1.0 39 134 0
1.0 95 124 0
1.0 -91 -57 0
1.0 -88 -53 0
1.0 4 3 0
1.0 69 -54 0
1.0 128 -79 0
1.0 137 66 0
1.0 -60 47 0
1.0 30 -104 0
1.0 20 -140 0
1.0 -53 58 0
1.0 61 -103 0
1.0 17 124 0
1.0 -62 105 0
1.0 -31 -111 0
1.0 -17 41 0
1.0 5 29 0
1.0 -29 -88 0
1.0 -6 71 0
1.0 34 62 0
1.0 46 -119 0
1.0 84 -129 0
1.0 100 -117 0
1.0 18 31 0
1.0 59 -50 0
1.0 138 37 0
1.0 108 26 0
1.0 87 -126 0
1.0 -105 104 0
1.0 93 124 0
1.0 101 -89 0
1.0 -119 51 0
1.0 -100 -46 0
1.0 -83 13 0
1.0 38 -31 0
1.0 -16 -102 0
1.0 65 77 0
1.0 60 51 0
1.0 -139 -98 0
1.0 8 -139 0
1.0 44 -139 0
1.0 11 26 0
1.0 57 -87 0
1.0 48 -10 0
1.0 -86 80 0
1.0 130 -60 0
1.0 -17 25 0
1.0 -23 120 0
1.0 118 -57 0
1.0 83 -88 0
1.0 34 -70 0
1.0 80 122 0
1.0 61 44 0
1.0 103 -57 0
1.0 82 -5 0
1.0 125 -135 0
1.0 -51 -83 0
1.0 -30 128 0
1.0 58 -61 0
1.0 43 -59 0
1.0 103 53 0
1.0 110 54 0
1.0 59 48 0
1.0 43 -45 0
1.0 -127 97 0
1.0 -85 77 0
1.0 -138 85 0
1.0 3 -21 0
1.0 74 17 0
1.0 -70 -75 0
1.0 123 109 0
1.0 -14 36 0
1.0 132 -63 0
1.0 -140 -97 0
1.0 41 77 0
1.0 98 39 0
1.0 -56 -40 0
1.0 -114 -30 0
1.0 -139 4 0
1.0 39 98 0
1.0 -20 30 0
1.0 126 46 0
1.0 -123 -52 0
1.0 -91 80 0
1.0 -119 -47 0
1.0 77 -104 0
1.0 -107 30 0
1.0 127 100 0
1.0 129 -4 0
1.0 49 41 0
1.0 -93 72 0
1.0 11 -83 0
1.0 -130 40 0
1.0 4 -131 0
1.0 -20 88 0
1.0 47 13 0
1.0 17 38 0
1.0 -79 10 0
1.0 -81 -68 0
1.0 -11 124 0
1.0 24 23 0
1.0 -13 67 0
1.0 14 113 0
1.0 -126 52 0
1.0 90 105 0
1.0 115 24 0
1.0 91 -134 0
1.0 -118 88 0
1.0 110 -27 0
1.0 94 -24 0
1.0 137 -54 0
1.0 -105 124 0
1.0 -89 51 0
1.0 -74 2 0
1.0 -136 -125 0
1.0 -73 86 0
1.0 113 140 0
1.0 23 40 0
1.0 94 62 0
1.0 -46 -126 0
1.0 36 -55 0
1.0 -57 34 0
1.0 19 -119 0
1.0 -65 137 0
1.0 -136 18 0
1.0 58 137 0
1.0 59 -40 0
1.0 -25 42 0
1.0 97 13 0
1.0 47 23 0
1.0 2 88 0
1.0 -85 -10 0
1.0 -28 -66 0
1.0 -63 -136 0
1.0 -36 26 0
1.0 -68 42 0
1.0 55 -9 0
1.0 32 102 0
1.0 -49 -44 0
1.0 -54 -61 0
1.0 127 31 0
1.0 27 122 0
1.0 -8 -115 0
1.0 -16 -101 0
1.0 110 136 0
1.0 97 59 0
1.0 -103 133 0
1.0 -54 72 0
1.0 -102 -123 0
1.0 104 -119 0
1.0 93 -30 0
1.0 131 -5 0
1.0 -1 -71 0
1.0 -130 -135 0
1.0 -127 103 0
1.0 -34 -65 0
1.0 -47 30 0
1.0 -8 -33 0
1.0 63 28 0
1.0 33 109 0
1.0 -40 113 0
1.0 -107 -94 0
1.0 -56 -90 0
1.0 -14 75 0
1.0 104 -68 0
1.0 -101 52 0
1.0 -79 -1 0
1.0 110 89 0
1.0 61 133 0
1.0 -86 19 0
1.0 -109 -115 0
1.0 49 35 0
1.0 -103 111 0
1.0 -22 -55 0
1.0 -56 23 0
1.0 111 74 0
1.0 66 70 0
1.0 89 40 0
1.0 15 103 0
1.0 -137 -80 0
1.0 51 -58 0
1.0 112 109 0
1.0 131 -103 0
1.0 -36 -84 0
1.0 -14 -52 0
1.0 92 -126 0
1.0 88 -57 0
1.0 137 103 0
1.0 -21 -66 0
1.0 35 10 0
1.0 -112 70 0
1.0 -13 120 0
1.0 -32 -81 0
1.0 -66 6 0
1.0 -63 117 0
1.0 -80 -3 0
1.0 -69 -84 0
1.0 -93 111 0
1.0 -40 114 0
1.0 -93 -40 0
1.0 -120 65 0
1.0 71 -55 0
1.0 32 -17 0
1.0 -19 -18 0
1.0 101 23 0
1.0 -133 37 0
1.0 -10 -50 0
1.0 -89 21 0
1.0 -86 53 0
1.0 107 -33 0
1.0 -49 61 0
1.0 78 40 0
1.0 -63 64 0
1.0 -101 -70 0
1.0 -120 31 0
1.0 -52 -19 0
1.0 71 111 0
1.0 3 21 0
1.0 -82 5 0
1.0 44 -134 0
1.0 58 10 0
1.0 -80 109 0
1.0 -140 61 0
1.0 80 124 0
1.0 95 -61 0
1.0 82 83 0
1.0 88 -128 0
1.0 -121 100 0
1.0 110 118 0
1.0 -87 -45 0
1.0 -106 95 0
1.0 79 44 0
1.0 -104 102 0
1.0 45 -138 0
1.0 -125 -110 0
1.0 70 81 0
1.0 -59 61 0
1.0 -106 -56 0
1.0 -11 -86 0
1.0 -129 -30 0
1.0 -132 110 0
1.0 108 -65 0
1.0 35 -11 0
1.0 91 62 0
1.0 122 -91 0
1.0 6 103 0
1.0 -48 134 0
1.0 -23 86 0
1.0 55 127 0
1.0 -52 -78 0
1.0 89 31 0
1.0 92 -52 0
1.0 2 62 0
1.0 24 -39 0
1.0 -32 129 0
1.0 74 -97 0
1.0 83 -118 0
1.0 -56 124 0
1.0 15 -128 0
1.0 40 92 0
1.0 13 60 0
1.0 -99 -73 0
1.0 62 -76 0
1.0 -33 -114 0
1.0 -92 134 0
1.0 118 -48 0
1.0 -36 -54 0
1.0 -5 137 0
1.0 57 25 0
1.0 98 23 0
1.0 99 -51 0
1.0 -25 -137 0
1.0 -130 -75 0
1.0 -122 133 0
1.0 -47 57 0
1.0 53 -69 0
1.0 -93 123 0
1.0 6 -130 0
1.0 -41 82 0
1.0 78 60 0
1.0 135 -24 0
1.0 -16 134 0
1.0 -50 -86 0
1.0 -14 -42 0
1.0 25 57 0
1.0 -46 -86 0
1.0 27 -88 0
1.0 8 53 0
1.0 -76 -68 0
1.0 61 -112 0
1.0 -58 -127 0
1.0 29 5 0
1.0 -61 -55 0
1.0 1 77 0
1.0 -25 65 0
1.0 117 25 0
1.0 92 13 0
1.0 -124 17 0
1.0 -4 56 0
1.0 -60 -11 0
1.0 -66 29 0
1.0 -106 -140 0
1.0 65 85 0
1.0 -109 57 0
1.0 -69 96 0
1.0 -113 -55 0
1.0 111 65 0
1.0 75 -93 0
1.0 122 -97 0
1.0 -97 18 0
1.0 102 -99 0
1.0 -15 -14 0
1.0 -110 -64 0
1.0 119 -87 0
1.0 -12 -65 0
1.0 -18 -129 0
1.0 -85 11 0
1.0 29 -21 0
1.0 119 -122 0
1.0 -136 -52 0
1.0 115 -71 0
1.0 17 105 0
1.0 -30 20 0
1.0 8 -61 0
1.0 -72 -130 0
1.0 -11 -54 0
1.0 -36 11 0
1.0 -62 59 0
1.0 -130 45 0
1.0 10 32 0
1.0 -52 9 0
1.0 70 131 0
1.0 -121 -5 0
1.0 -59 -50 0
1.0 -60 -104 0
1.0 23 124 0
1.0 29 8 0
1.0 -40 -52 0
1.0 61 -23 0
1.0 -14 -23 0
1.0 -28 -90 0
1.0 140 107 0
1.0 71 -28 0
1.0 -11 58 0
1.0 -65 -123 0
1.0 35 -15 0
1.0 -38 66 0
1.0 88 -76 0
1.0 26 32 0
1.0 -139 102 0
1.0 129 -123 0
1.0 40 -128 0
1.0 111 117 0
1.0 -131 124 0
1.0 -49 -46 0
1.0 -121 124 0
1.0 16 32 0
1.0 -134 -113 0
1.0 -95 -105 0
1.0 -92 21 0
1.0 137 -27 0
1.0 10 28 0
1.0 73 93 0
1.0 77 -26 0
1.0 -58 90 0
1.0 62 47 0
1.0 12 -15 0
1.0 36 109 0
1.0 136 92 0
1.0 119 34 0
1.0 -126 119 0
1.0 5 25 0
1.0 -114 119 0
1.0 26 6 0
1.0 -20 64 0
1.0 -33 25 0
1.0 117 -106 0
1.0 139 -97 0
1.0 75 -112 0
1.0 136 -61 0
1.0 40 113 0
1.0 -119 -57 0
1.0 120 102 0
1.0 126 -140 0
1.0 105 -72 0
1.0 -29 -63 0
1.0 34 134 0
1.0 -54 -43 0
1.0 16 -3 0
1.0 -59 119 0
1.0 80 45 0
1.0 45 89 0
1.0 -21 84 0
1.0 7 59 0
1.0 52 -55 0
1.0 98 -67 0
1.0 -69 -76 0
1.0 54 -99 0
1.0 4 76 0
1.0 25 86 0
1.0 -30 28 0
1.0 -86 -108 0
1.0 -23 -5 0
1.0 -71 -20 0
1.0 -96 60 0
1.0 19 14 0
1.0 89 -62 0
1.0 7 126 0
1.0 -13 -114 0
1.0 -81 -7 0
1.0 -11 -59 0
1.0 -78 35 0
1.0 95 -69 0
1.0 -82 45 0
1.0 106 -63 0
1.0 48 23 0
1.0 136 -80 0
1.0 86 -116 0
1.0 34 -122 0
1.0 16 -118 0
1.0 -47 -83 0
1.0 77 -18 0
1.0 22 29 0
1.0 38 -108 0
1.0 127 -116 0
1.0 -15 -18 0
1.0 55 107 0
1.0 -112 122 0
1.0 -65 66 0
1.0 -84 -26 0
1.0 54 -46 0
1.0 14 49 0
1.0 -25 130 0
1.0 7 98 0
1.0 -65 48 0
1.0 30 -31 0
1.0 -96 23 0
1.0 48 -94 0
1.0 139 13 0
1.0 62 -120 0
1.0 -110 -115 0
1.0 73 -21 0
1.0 69 -129 0
1.0 20 -87 0
1.0 110 6 0
1.0 -99 -18 0
1.0 -31 -30 0
1.0 10 -122 0
1.0 -97 24 0
1.0 45 -131 0
1.0 -120 -60 0
1.0 -7 -122 0
1.0 -128 133 0
1.0 110 -44 0
1.0 13 -129 0
1.0 -27 127 0
1.0 -81 -120 0
1.0 7 66 0
1.0 -136 -50 0
1.0 -23 49 0
1.0 41 50 0
1.0 94 -52 0
1.0 -41 17 0
1.0 -3 -51 0
1.0 30 70 0
1.0 -135 -64 0
1.0 -114 -36 0
1.0 85 -73 0
1.0 -123 -22 0
1.0 74 -4 0
1.0 20 1 0
1.0 -51 -16 0
1.0 -85 -118 0
1.0 -42 79 0
1.0 115 39 0
1.0 111 -18 0
1.0 -39 28 0
1.0 69 87 0
1.0 -127 85 0
1.0 -49 61 0
1.0 38 -26 0
1.0 -96 -83 0
1.0 -94 -10 0
1.0 53 -57 0
1.0 -85 123 0
1.0 -70 55 0
1.0 139 63 0
1.0 -124 4 0
1.0 -30 -2 0
1.0 -85 89 0
1.0 98 85 0
1.0 -1 -20 0
1.0 -2 -94 0
1.0 -9 42 0
1.0 105 -44 0
1.0 -48 -129 0
1.0 131 -107 0
1.0 -56 44 0
1.0 128 -124 0
1.0 -3 125 0
1.0 -79 -33 0
1.0 -74 62 0
1.0 -106 9 0
1.0 -137 -95 0
1.0 62 -14 0
1.0 -57 36 0
1.0 20 15 0
1.0 140 -106 0
1.0 139 -102 0
1.0 -23 -119 0
1.0 127 -97 0
1.0 -52 -92 0
1.0 -106 33 0
1.0 69 -82 0
1.0 -97 -99 0
1.0 65 136 0
1.0 -97 -58 0
1.0 -37 106 0
1.0 62 -109 0
1.0 -61 118 0
1.0 11 -37 0
1.0 118 -115 0
1.0 74 -136 0
1.0 132 -64 0
1.0 121 56 0
1.0 21 -35 0
1.0 3 47 0
1.0 -25 140 0
1.0 -36 137 0
1.0 -112 1 0
1.0 137 -118 0
1.0 -42 104 0
1.0 19 3 0
1.0 -37 79 0
1.0 -126 35 0
1.0 34 52 0
1.0 -48 18 0
1.0 18 32 0
1.0 10 107 0
1.0 -70 -77 0
1.0 -79 -112 0
1.0 50 108 0
1.0 3 118 0
1.0 -29 -90 0
1.0 -108 -50 0
1.0 -81 -20 0
1.0 -127 1 0
1.0 78 73 0
1.0 -44 -132 0
1.0 -100 -7 0
1.0 -124 34 0
1.0 -124 -105 0
1.0 -14 -45 0
1.0 64 75 0
1.0 -76 44 0
1.0 116 111 0
1.0 -103 20 0
1.0 26 102 0
1.0 136 -23 0
1.0 127 -110 0
1.0 -15 -5 0
1.0 -80 138 0
1.0 42 94 0
1.0 65 55 0
1.0 -74 -10 0
1.0 -111 -113 0
1.0 -135 -129 0
1.0 -99 -14 0
1.0 19 -75 0
1.0 -72 -39 0
1.0 -133 139 0
1.0 -54 -28 0
1.0 -37 32 0
1.0 -4 -54 0
1.0 -43 58 0
1.0 -72 -99 0
1.0 33 -25 0
1.0 -63 20 0
1.0 -19 -69 0
1.0 96 -56 0
1.0 -87 -5 0
1.0 -58 -114 0
1.0 -32 -66 0
1.0 25 74 0
1.0 98 101 0
1.0 -121 -100 0
1.0 -28 -49 0
1.0 -104 129 0
1.0 134 116 0
1.0 89 -88 0
1.0 -14 111 0
1.0 -45 136 0
1.0 97 -117 0
1.0 -76 -100 0
1.0 -9 -6 0
1.0 135 -63 0
1.0 39 -23 0
1.0 -111 -49 0
1.0 20 51 0
1.0 47 117 0
1.0 -93 91 0
1.0 -51 14 0
1.0 20 79 0
1.0 2 54 0
1.0 77 40 0
1.0 89 -135 0
1.0 46 -54 0
1.0 -31 -100 0
1.0 50 -33 0
1.0 46 4 0
1.0 -82 -49 0
1.0 -103 80 0
1.0 -120 10 0
1.0 5 118 0
1.0 32 69 0
1.0 28 -94 0
1.0 126 58 0
1.0 -62 56 0
1.0 -105 35 0
1.0 -115 -69 0
1.0 78 -51 0
1.0 -29 58 0
1.0 -126 132 0
1.0 -86 -28 0
1.0 -86 128 0
1.0 43 60 0
1.0 -95 97 0
1.0 25 -39 0
1.0 90 -44 0
1.0 101 -36 0
1.0 -28 -19 0
1.0 47 -50 0
1.0 -37 -7 0
1.0 -66 9 0
1.0 -105 -21 0
1.0 -59 111 0
1.0 -15 -137 0
1.0 33 24 0
1.0 43 -20 0
1.0 -69 -77 0
1.0 84 80 0
1.0 89 132 0
1.0 12 -118 0
1.0 -88 -136 0
1.0 -133 66 0
1.0 -90 -138 0
1.0 -17 -119 0
1.0 56 -22 0
1.0 102 96 0
1.0 -88 -38 0
1.0 15 -6 0
1.0 1 -108 0
1.0 33 -1 0
1.0 -139 103 0
1.0 -81 -55 0
1.0 -76 12 0
1.0 -108 3 0
1.0 40 50 0
1.0 55 43 0
1.0 10 81 0
1.0 82 -66 0
1.0 -29 -139 0
1.0 -53 -56 0
1.0 68 99 0
1.0 -102 112 0
1.0 21 -104 0
1.0 -6 72 0
1.0 13 -40 0
1.0 106 -84 0
1.0 -82 -129 0
1.0 -45 -69 0
1.0 28 -9 0
1.0 -120 98 0
1.0 -62 44 0
1.0 -115 -68 0
1.0 -108 -2 0
1.0 85 115 0
1.0 104 31 0
1.0 -99 -4 0
1.0 -13 -128 0
1.0 -85 104 0
1.0 -7 -70 0
1.0 -137 -16 0
1.0 18 -50 0
1.0 -25 -105 0
1.0 -136 -10 0
1.0 -14 117 0
1.0 104 55 0
1.0 18 11 0
1.0 80 -126 0
1.0 2 115 0
1.0 -24 78 0
1.0 43 109 0
1.0 -119 -32 0
1.0 8 -74 0
1.0 129 36 0
1.0 46 -72 0
1.0 58 38 0
1.0 -12 102 0
1.0 -40 -57 0
1.0 -26 120 0
1.0 -12 114 0
1.0 -47 15 0
1.0 51 -10 0
1.0 -81 -73 0
1.0 111 -3 0
1.0 104 134 0
1.0 -51 -101 0
1.0 -81 -66 0
1.0 -39 -77 0
1.0 -92 101 0
1.0 -110 22 0
1.0 95 40 0
1.0 42 106 0
1.0 100 64 0
1.0 -25 -94 0
1.0 19 26 0
1.0 103 28 0
1.0 128 -122 0
1.0 4 -14 0
1.0 53 -58 0
1.0 -24 -70 0
1.0 -134 109 0
1.0 -63 -79 0
1.0 -104 40 0
1.0 -67 1 0
1.0 123 -36 0
1.0 -50 -21 0
1.0 79 -107 0
1.0 -36 16 0
1.0 125 78 0
1.0 -16 -30 0
1.0 70 -128 0
1.0 129 -27 0
1.0 -63 -97 0
1.0 41 73 0
1.0 129 124 0
1.0 -69 72 0
1.0 118 36 0
1.0 -25 3 0
1.0 49 -73 0
1.0 -123 111 0
1.0 -68 -109 0
1.0 -42 10 0
1.0 134 17 0
1.0 88 23 0
1.0 -59 -91 0
1.0 -94 11 0
1.0 -83 97 0
1.0 -68 -75 0
1.0 -43 -97 0
1.0 -107 -77 0
1.0 94 9 0
1.0 -32 -90 0
1.0 -41 34 0
1.0 -130 -136 0
1.0 73 59 0
1.0 28 -9 0
1.0 -111 135 0
1.0 109 -50 0
1.0 71 43 0
1.0 10 98 0
1.0 -132 -54 0
1.0 50 -94 0
1.0 -13 81 0
1.0 89 40 0
1.0 -35 114 0
1.0 -24 -108 0
1.0 -10 128 0
1.0 86 -34 0
1.0 88 -30 0
1.0 -124 -125 0
1.0 65 109 0
1.0 -9 59 0
1.0 32 40 0
1.0 7 26 0
1.0 13 -123 0
1.0 16 -103 0
1.0 -132 -92 0
1.0 -77 79 0
1.0 48 5 0
1.0 -63 -87 0
1.0 126 -4 0
1.0 29 19 0
1.0 -1 44 0
1.0 -6 -34 0
1.0 -126 80 0
1.0 18 84 0
1.0 -88 78 0
1.0 -24 79 0
1.0 83 -115 0
1.0 134 -11 0
1.0 54 12 0
1.0 46 130 0
1.0 -69 -31 0
1.0 114 16 0
1.0 -94 -133 0
1.0 -72 37 0
1.0 -12 129 0
1.0 -140 137 0
1.0 -8 9 0
1.0 -139 31 0
1.0 61 37 0
1.0 -53 26 0
1.0 -18 -28 0
1.0 -64 -110 0
1.0 -98 -87 0
1.0 83 -79 0
1.0 88 -123 0
1.0 13 -87 0
1.0 -124 27 0
1.0 53 64 0
1.0 91 25 0
1.0 -134 -122 0
1.0 69 30 0
1.0 -109 59 0
1.0 42 105 0
1.0 -52 16 0
1.0 -42 -97 0
1.0 20 -114 0
1.0 -139 -43 0
1.0 -25 -75 0
1.0 -105 -132 0
1.0 -51 -65 0
1.0 29 -132 0
1.0 -7 135 0
1.0 91 -47 0
1.0 -21 27 0
1.0 70 -66 0
1.0 140 -94 0
1.0 86 -9 0
1.0 -73 -26 0
1.0 17 95 0
1.0 -89 18 0
1.0 65 -74 0
1.0 -101 90 0
1.0 -16 114 0
1.0 -68 29 0
1.0 37 -16 0
1.0 -42 98 0
1.0 -53 114 0
1.0 132 13 0
1.0 87 51 0
1.0 -140 105 0
1.0 78 59 0
1.0 87 -9 0
1.0 -25 29 0
1.0 -127 25 0
1.0 139 -65 0
1.0 78 81 0
1.0 -132 -46 0
1.0 11 -8 0
1.0 -67 36 0
1.0 -45 113 0
1.0 -1 -91 0
1.0 116 -118 0
1.0 -43 -67 0
1.0 8 -9 0
1.0 -55 77 0
1.0 85 136 0
1.0 32 -107 0
1.0 79 -23 0
1.0 113 -139 0
1.0 117 93 0
1.0 19 25 0
1.0 33 -6 0
1.0 82 14 0
1.0 10 24 0
1.0 -130 63 0
1.0 85 120 0
1.0 119 -75 0
1.0 -27 66 0
1.0 -91 -115 0
1.0 120 96 0
1.0 -110 -82 0
1.0 106 -126 0
1.0 48 -135 0
1.0 114 -32 0
1.0 106 -54 0
1.0 120 22 0
1.0 137 -109 0
1.0 65 123 0
1.0 64 126 0
1.0 -112 31 0
1.0 25 -8 0
1.0 -39 60 0
1.0 -113 -139 0
1.0 21 34 0
1.0 -3 74 0
1.0 -56 -30 0
1.0 16 -113 0
1.0 4 132 0
1.0 140 17 0
1.0 76 118 0
1.0 116 -40 0
1.0 74 -22 0
1.0 96 5 0
1.0 -35 104 0
1.0 76 -139 0
1.0 -131 -43 0
1.0 59 -134 0
1.0 111 -71 0
1.0 -111 42 0
1.0 -64 95 0
1.0 100 -122 0
1.0 85 20 0
1.0 -18 81 0
1.0 -123 67 0
1.0 60 27 0
1.0 -98 76 0
1.0 -118 59 0
1.0 14 -90 0
1.0 -72 88 0
1.0 108 -11 0
1.0 -91 -137 0
1.0 -63 -132 0
1.0 18 -8 0
1.0 84 129 0
1.0 -47 13 0
1.0 103 20 0
1.0 108 -140 0
1.0 10 -87 0
1.0 84 54 0
1.0 -46 8 0
1.0 16 -140 0
1.0 128 80 0
1.0 -93 121 0
1.0 -1 -128 0
1.0 128 -139 0
1.0 -86 103 0
1.0 17 133 0
1.0 -140 22 0
1.0 -21 23 0
1.0 102 135 0
1.0 -116 -137 0
1.0 -125 -57 0
1.0 -56 125 0
1.0 87 -68 0
1.0 60 64 0
1.0 -86 -10 0
1.0 -32 -50 0
1.0 44 16 0
1.0 -13 -16 0
1.0 -73 -77 0
1.0 -61 78 0
1.0 -5 19 0
1.0 -83 135 0
1.0 -4 58 0
1.0 107 109 0
1.0 125 -76 0
1.0 -92 24 0
1.0 100 102 0
1.0 39 2 0
1.0 -20 -138 0
1.0 -132 -90 0
1.0 7 -126 0
1.0 -95 -59 0
1.0 -134 -12 0
1.0 -35 -69 0
1.0 31 121 0
1.0 -122 42 0
1.0 -40 79 0
1.0 29 95 0
1.0 81 56 0
1.0 -114 -131 0
1.0 3 49 0
1.0 118 21 0
1.0 -1 -46 0
1.0 -88 -50 0
1.0 129 88 0
1.0 43 -44 0
1.0 100 -59 0
1.0 49 131 0
1.0 -39 93 0
1.0 113 -119 0
1.0 -25 -101 0
1.0 -10 -80 0
1.0 28 -116 0
1.0 19 -65 0
1.0 123 71 0
1.0 -62 -91 0
1.0 -44 29 0
1.0 -7 1 0
1.0 102 -86 0
1.0 -26 101 0
1.0 -76 -123 0
1.0 -48 37 0
1.0 107 122 0
1.0 -73 -3 0
1.0 -31 105 0
1.0 106 122 0
1.0 68 -71 0
1.0 32 -6 0
1.0 129 130 0
1.0 26 -133 0
1.0 114 127 0
1.0 130 10 0
1.0 114 -14 0
1.0 136 126 0
1.0 56 -43 0
1.0 49 23 0
1.0 -12 115 0
1.0 107 -140 0
1.0 -127 -51 0
1.0 -60 9 0
1.0 -23 52 0
1.0 -37 -118 0
1.0 21 97 0
1.0 -119 -94 0
1.0 69 40 0
1.0 -39 58 0
1.0 -108 103 0
1.0 112 -134 0
1.0 46 -33 0
1.0 10 92 0
1.0 -49 74 0
1.0 27 -66 0
1.0 -105 46 0
1.0 103 -107 0
1.0 -69 27 0
1.0 21 17 0
1.0 49 47 0
1.0 -138 41 0
1.0 -115 49 0
1.0 -114 -92 0
1.0 -137 -87 0
1.0 53 -108 0
1.0 134 127 0
1.0 -3 57 0
1.0 -103 -87 0
1.0 127 -60 0
1.0 -108 -81 0
1.0 32 59 0
1.0 -5 100 0
1.0 67 17 0
1.0 -3 62 0
1.0 118 -15 0
1.0 101 -28 0
1.0 88 49 0
1.0 -129 11 0
1.0 70 -14 0
1.0 -113 36 0
1.0 -52 31 0
1.0 92 36 0
1.0 51 118 0
1.0 -6 -52 0
1.0 100 -7 0
1.0 -17 -3 0
1.0 -16 21 0
1.0 -12 29 0
1.0 -130 17 0
1.0 -78 64 0
1.0 75 -86 0
1.0 -44 14 0
1.0 21 34 0
1.0 1 13 0
1.0 33 28 0
1.0 -57 30 0
1.0 -47 -81 0
1.0 5 -6 0
1.0 92 -101 0
1.0 114 -10 0
1.0 43 112 0
1.0 125 57 0
1.0 85 128 0
1.0 18 9 0
1.0 90 -117 0
1.0 122 -88 0
1.0 48 97 0
1.0 106 113 0
1.0 84 35 0
1.0 -92 112 0
1.0 100 -8 0
1.0 17 -82 0
1.0 58 89 0
1.0 -37 -93 0
1.0 -50 40 0
1.0 13 -122 0
1.0 17 -76 0
1.0 48 110 0
1.0 -118 -40 0
1.0 -121 25 0
1.0 -114 20 0
1.0 -113 51 0
1.0 91 -59 0
1.0 41 61 0
1.0 136 83 0
1.0 53 28 0
1.0 67 35 0
1.0 -59 124 0
1.0 3 -25 0
1.0 -75 136 0
1.0 -55 -33 0
1.0 94 -46 0
1.0 -129 37 0
1.0 -65 -43 0
1.0 78 -94 0
1.0 78 -126 0
1.0 10 -69 0
1.0 -65 -51 0
1.0 -84 97 0
1.0 -3 -85 0
1.0 122 119 0
1.0 22 -102 0
1.0 -56 -76 0
1.0 -61 -122 0
1.0 50 -127 0
1.0 -38 -125 0
1.0 82 -25 0
1.0 -110 -3 0
1.0 -121 106 0
1.0 -68 -33 0
1.0 -108 54 0
1.0 -35 -49 0
1.0 35 -113 0
1.0 97 11 0
1.0 -36 70 0
1.0 -73 56 0
1.0 22 -92 0
1.0 -124 -16 0
1.0 -69 -48 0
1.0 96 -76 0
1.0 48 107 0
1.0 118 116 0
1.0 46 -24 0
1.0 80 -113 0
1.0 65 88 0
1.0 -103 122 0
1.0 -29 -116 0
1.0 -51 -44 0
1.0 -10 -39 0
1.0 -14 5 0
1.0 29 -17 0
1.0 130 70 0
1.0 -17 -119 0
1.0 100 -99 0
1.0 -74 -7 0
1.0 -50 88 0
1.0 126 -45 0
1.0 50 -45 0
1.0 62 97 0
1.0 -26 115 0
1.0 94 65 0
1.0 23 -33 0
1.0 -39 -14 0
1.0 102 -23 0
1.0 -68 -53 0
1.0 98 6 0
1.0 -102 -70 0
1.0 34 -30 0
1.0 -52 -83 0
1.0 -123 -77 0
1.0 -17 72 0
1.0 -79 -44 0
1.0 -131 -84 0
1.0 -139 -108 0
1.0 38 -85 0
1.0 114 67 0
1.0 -9 -11 0
1.0 -87 -93 0
1.0 25 -85 0
1.0 -129 -109 0
1.0 -53 42 0
1.0 10 71 0
1.0 -15 -49 0
1.0 115 -9 0
1.0 -19 -125 0
1.0 77 -102 0
1.0 47 72 0
1.0 40 -17 0
1.0 59 127 0
1.0 -57 -16 0
1.0 64 96 0
1.0 105 -75 0
1.0 -59 -137 0
1.0 -99 17 0
1.0 88 -20 0
1.0 -37 -52 0
1.0 38 -84 0
1.0 100 140 0
1.0 96 87 0
1.0 22 -84 0
1.0 -80 131 0
1.0 7 -32 0
1.0 -52 -81 0
1.0 133 23 0
1.0 -107 67 0
1.0 -67 11 0
1.0 -98 -11 0
1.0 94 123 0
1.0 -113 -134 0
1.0 -25 -114 0
1.0 55 17 0
1.0 -39 69 0
1.0 -136 61 0
1.0 -71 19 0
1.0 30 -25 0
1.0 8 -65 0
1.0 -58 -88 0
1.0 62 -34 0
1.0 51 -44 0
1.0 -112 -98 0
1.0 18 -23 0
1.0 -42 -113 0
1.0 137 124 0
1.0 -48 -71 0
1.0 19 -85 0
1.0 119 67 0
1.0 -111 -77 0
1.0 34 70 0
1.0 -93 -78 0
1.0 50 116 0
1.0 100 120 0
1.0 -51 35 0
1.0 120 -20 0
1.0 -87 64 0
1.0 -140 103 0
1.0 -33 -47 0
1.0 -125 84 0
1.0 -60 45 0
1.0 25 -130 0
1.0 25 138 0
1.0 -17 -12 0
1.0 75 -87 0
1.0 -50 -17 0
1.0 64 52 0
1.0 -136 47 0
1.0 -92 -21 0
1.0 10 99 0
1.0 96 -54 0
1.0 -65 -138 0
1.0 -85 -94 0
1.0 -110 41 0
1.0 -93 -4 0
1.0 51 23 0
1.0 -43 76 0
1.0 -35 -29 0
1.0 -82 124 0
1.0 122 37 0
1.0 130 -79 0
1.0 -120 -138 0
1.0 1 74 0
1.0 96 -23 0
1.0 99 -32 0
1.0 -61 137 0
1.0 121 -84 0
1.0 120 -15 0
1.0 93 -89 0
1.0 86 -61 0
1.0 -135 -25 0
1.0 -48 52 0
1.0 -84 139 0
1.0 136 -121 0
1.0 -65 15 0
1.0 29 -106 0
1.0 55 83 0
1.0 -3 -58 0
1.0 -83 -85 0
1.0 -137 -36 0
1.0 -34 134 0
1.0 115 89 0
1.0 -103 -82 0
1.0 -48 -99 0
1.0 -41 25 0
1.0 83 49 0
1.0 134 -128 0
1.0 23 11 0
1.0 -5 -13 0
1.0 102 90 0
1.0 31 -103 0
1.0 61 -27 0
1.0 51 -1 0
1.0 49 44 0
1.0 32 34 0
1.0 -44 101 0
1.0 113 -55 0
1.0 -4 46 0
1.0 -9 53 0
1.0 79 -12 0
1.0 -12 34 0
1.0 -78 -2 0
1.0 36 -134 0
1.0 -94 132 0
1.0 46 14 0
1.0 -59 138 0
1.0 -50 -56 0
